scenarios/sols/small/emicp_milp/020.sol
objective value:                     0.91536989135402
x(0,3,0)                                            1 	(obj:0)
x(1,2,1)                                            1 	(obj:0)
x(1,14,2)                                           1 	(obj:0)
x(2,11,1)                                           1 	(obj:0)
x(3,9,0)                                            1 	(obj:0)
x(4,1,2)                                            1 	(obj:0)
x(9,10,0)                                           1 	(obj:0)
x(10,0,0)                                           1 	(obj:0)
x(11,1,1)                                           1 	(obj:0)
x(14,4,2)                                           1 	(obj:0)
xc(1,8)                                             1 	(obj:0)
xc(4,3)                                             1 	(obj:0)
u(1,2)                              0.380090691955679 	(obj:0)
u(2,1)                              0.189364087845696 	(obj:0)
u(3,0)                             0.0897155402983202 	(obj:0)
u(9,0)                              0.458147159513731 	(obj:0)
u(10,0)                              0.91536989135402 	(obj:0)
u(10,1)                             0.378728175691392 	(obj:0)
u(10,2)                             0.218326717625381 	(obj:0)
u(11,0)                             0.378728175691392 	(obj:0)
u(11,1)                              0.91536989135402 	(obj:0)
u(11,2)                             0.370887501143091 	(obj:0)
u(12,0)                             0.378728175691392 	(obj:0)
u(12,1)                              0.18899724676972 	(obj:0)
u(12,2)                             0.378728175691392 	(obj:0)
u(13,0)                            0.0883175857122502 	(obj:0)
u(13,1)                             0.378728175691392 	(obj:0)
u(13,2)                             0.255112985035201 	(obj:0)
u(14,0)                              0.16576129410954 	(obj:0)
u(14,1)                              0.37122283123848 	(obj:0)
u(14,2)                              0.91536989135402 	(obj:0)
u(15,0)                             0.378728175691392 	(obj:0)
u(15,1)                              0.22325407437169 	(obj:0)
u(15,2)                             0.378728175691392 	(obj:0)
u(16,0)                             0.253979870922521 	(obj:0)
u(16,1)                             0.324150271303241 	(obj:0)
u(16,2)                            0.0882185768129808 	(obj:0)
u(17,0)                             0.309114326738271 	(obj:0)
u(17,1)                             0.378728175691392 	(obj:0)
u(17,2)                             0.344836025192469 	(obj:0)
u(18,0)                             0.378728175691392 	(obj:0)
u(18,1)                              0.20954263088511 	(obj:0)
u(18,2)                             0.378728175691392 	(obj:0)
u(19,0)                             0.378728175691392 	(obj:0)
u(19,1)                             0.378728175691392 	(obj:0)
u(19,2)                             0.378728175691392 	(obj:0)
f(0,3,0)                                            1 	(obj:0)
f(1,14,1)                                           1 	(obj:0)
f(1,14,2)                                           1 	(obj:0)
f(2,11,2)                                           1 	(obj:0)
f(3,9,0)                                            1 	(obj:0)
f(3,9,1)                                            1 	(obj:0)
f(3,9,2)                                            1 	(obj:0)
f(3,9,3)                                            1 	(obj:0)
f(3,9,4)                                            1 	(obj:0)
f(4,3,1)                                            1 	(obj:0)
f(4,3,2)                                            1 	(obj:0)
f(4,3,4)                                            1 	(obj:0)
f(11,1,2)                                           1 	(obj:0)
f(14,4,1)                                           1 	(obj:0)
f(14,4,2)                                           1 	(obj:0)
z_r(0,)                              0.91536989135402 	(obj:0)
z_r(1,)                              0.91536989135402 	(obj:0)
z_r(2,)                              0.91536989135402 	(obj:0)
z                                    0.91536989135402 	(obj:1)
