scenarios/sols/small/emicp_milp/020.out
b'The following solver is parallelized by UG version 0.9.1 [GitHash: ]\n'
b'SCIP version 7.0.2 [precision: 8 byte] [memory: block] [mode: optimized] [LP solver: SoPlex 5.0.2] [GitHash: e9d280a398]\n'
b'Copyright (C) 2002-2020 Konrad-Zuse-Zentrum fuer Informationstechnik Berlin (ZIB)\n'
b'External codes: \n'
b'  Readline 7.0         GNU library for command line editing (gnu.org/s/readline)\n'
b'  SoPlex 5.0.2         Linear Programming Solver developed at Zuse Institute Berlin (soplex.zib.de) [GitHash: e24c304e]\n'
b'  CppAD 20180000.0     Algorithmic Differentiation of C++ algorithms developed by B. Bell (www.coin-or.org/CppAD)\n'
b'  ZLIB 1.2.11          General purpose compression library by J. Gailly and M. Adler (zlib.net)\n'
b'  GMP 6.1.2            GNU Multiple Precision Arithmetic Library developed by T. Granlund (gmplib.org)\n'
b'  ZIMPL 3.4.0          Zuse Institute Mathematical Programming Language developed by T. Koch (zimpl.zib.de)\n'
b'Default LC presolving (default).\n'
b'Original Problem   :\n'
b'  Problem name     : 020\n'
b'  Variables        : 5777 (1600 binary, 0 integer, 0 implicit integer, 4177 continuous)\n'
b'  Constraints      : 14369\n'
b'  Objective sense  : minimize\n'
b'Presolved Problem  :\n'
b'  Variables        : 954 (298 binary, 0 integer, 0 implicit integer, 656 continuous)\n'
b'  Constraints      : 1112\n'
b'Constraints        : Number\n'
b'  varbound         : 130 \n'
b'  knapsack         : 7 \n'
b'  setppc           : 69 \n'
b'  linear           : 905 \n'
b'  logicor          : 1 \n'
b'** Instance transfer method used: 0\n'
b'** ParaScipInstance copy does not increase the number of variables. **\n'
b'LC is working with racing ramp-up and with rebuilding tree after racing.\n'
b'                               Nodes    Active                                            \n'
b'     Time          Nodes        Left   Solvers     Best Integer        Best Node       Gap     Best Node(S)    Gap(S)\n'
b'*       0              2           1         8           1.1886           0.3787   213.83%\n'
b'*       2             51          48         8           0.9154           0.3787   141.70%\n'
b'        5           1121          46         8           0.9154           0.9144     0.10%\n'
b'        5            538           0         0           0.9154           0.9154     0.00%\n'
b'SCIP Status        : problem is solved\n'
b'Total Time         : 5.35\n'
b'  solving          : 5.35\n'
b'  presolving       : 0.06 (included in solving)\n'
b'B&B Tree           :\n'
b'  nodes (total)    : 538\n'
b'Solution           :\n'
b'  Solutions found  : 2\n'
b'  Primal Bound     : +9.15369891354020e-01\n'
b'  Dual Bound       : +9.15369891354020e-01\n'
b'Gap                : 0.00000 %\n'
